c *********************************
c * Circuit generated by BenCGen
c *
c * RippleCarryAdderSubtractor_25_25_25_OutSunT
c *
c * Ports with 1 gate(s): 2
c * Ports with 2 gate(s): 152
c * Total gates: 154
c *********************************
p cnf 204 536
1 78 0
-1 -78 0
1 -77 0
78 -77 0
-1 -78 77 0
77 79 0
-77 -79 0
26 77 -80 0
-26 77 80 0
26 -77 80 0
-26 -77 -80 0
27 77 -81 0
-27 77 81 0
27 -77 81 0
-27 -77 -81 0
28 77 -82 0
-28 77 82 0
28 -77 82 0
-28 -77 -82 0
29 77 -83 0
-29 77 83 0
29 -77 83 0
-29 -77 -83 0
30 77 -84 0
-30 77 84 0
30 -77 84 0
-30 -77 -84 0
31 77 -85 0
-31 77 85 0
31 -77 85 0
-31 -77 -85 0
32 77 -86 0
-32 77 86 0
32 -77 86 0
-32 -77 -86 0
33 77 -87 0
-33 77 87 0
33 -77 87 0
-33 -77 -87 0
34 77 -88 0
-34 77 88 0
34 -77 88 0
-34 -77 -88 0
35 77 -89 0
-35 77 89 0
35 -77 89 0
-35 -77 -89 0
36 77 -90 0
-36 77 90 0
36 -77 90 0
-36 -77 -90 0
37 77 -91 0
-37 77 91 0
37 -77 91 0
-37 -77 -91 0
38 77 -92 0
-38 77 92 0
38 -77 92 0
-38 -77 -92 0
39 77 -93 0
-39 77 93 0
39 -77 93 0
-39 -77 -93 0
40 77 -94 0
-40 77 94 0
40 -77 94 0
-40 -77 -94 0
41 77 -95 0
-41 77 95 0
41 -77 95 0
-41 -77 -95 0
42 77 -96 0
-42 77 96 0
42 -77 96 0
-42 -77 -96 0
43 77 -97 0
-43 77 97 0
43 -77 97 0
-43 -77 -97 0
44 77 -98 0
-44 77 98 0
44 -77 98 0
-44 -77 -98 0
45 77 -99 0
-45 77 99 0
45 -77 99 0
-45 -77 -99 0
46 77 -100 0
-46 77 100 0
46 -77 100 0
-46 -77 -100 0
47 77 -101 0
-47 77 101 0
47 -77 101 0
-47 -77 -101 0
48 77 -102 0
-48 77 102 0
48 -77 102 0
-48 -77 -102 0
49 77 -103 0
-49 77 103 0
49 -77 103 0
-49 -77 -103 0
50 77 -104 0
-50 77 104 0
50 -77 104 0
-50 -77 -104 0
1 80 -106 0
-1 80 106 0
1 -80 106 0
-1 -80 -106 0
106 77 -51 0
-106 77 51 0
106 -77 51 0
-106 -77 -51 0
77 -107 0
106 -107 0
-77 -106 107 0
80 -108 0
1 -108 0
-80 -1 108 0
-107 105 0
-108 105 0
107 108 -105 0
2 81 -110 0
-2 81 110 0
2 -81 110 0
-2 -81 -110 0
110 105 -52 0
-110 105 52 0
110 -105 52 0
-110 -105 -52 0
105 -111 0
110 -111 0
-105 -110 111 0
81 -112 0
2 -112 0
-81 -2 112 0
-111 109 0
-112 109 0
111 112 -109 0
3 82 -114 0
-3 82 114 0
3 -82 114 0
-3 -82 -114 0
114 109 -53 0
-114 109 53 0
114 -109 53 0
-114 -109 -53 0
109 -115 0
114 -115 0
-109 -114 115 0
82 -116 0
3 -116 0
-82 -3 116 0
-115 113 0
-116 113 0
115 116 -113 0
4 83 -118 0
-4 83 118 0
4 -83 118 0
-4 -83 -118 0
118 113 -54 0
-118 113 54 0
118 -113 54 0
-118 -113 -54 0
113 -119 0
118 -119 0
-113 -118 119 0
83 -120 0
4 -120 0
-83 -4 120 0
-119 117 0
-120 117 0
119 120 -117 0
5 84 -122 0
-5 84 122 0
5 -84 122 0
-5 -84 -122 0
122 117 -55 0
-122 117 55 0
122 -117 55 0
-122 -117 -55 0
117 -123 0
122 -123 0
-117 -122 123 0
84 -124 0
5 -124 0
-84 -5 124 0
-123 121 0
-124 121 0
123 124 -121 0
6 85 -126 0
-6 85 126 0
6 -85 126 0
-6 -85 -126 0
126 121 -56 0
-126 121 56 0
126 -121 56 0
-126 -121 -56 0
121 -127 0
126 -127 0
-121 -126 127 0
85 -128 0
6 -128 0
-85 -6 128 0
-127 125 0
-128 125 0
127 128 -125 0
7 86 -130 0
-7 86 130 0
7 -86 130 0
-7 -86 -130 0
130 125 -57 0
-130 125 57 0
130 -125 57 0
-130 -125 -57 0
125 -131 0
130 -131 0
-125 -130 131 0
86 -132 0
7 -132 0
-86 -7 132 0
-131 129 0
-132 129 0
131 132 -129 0
8 87 -134 0
-8 87 134 0
8 -87 134 0
-8 -87 -134 0
134 129 -58 0
-134 129 58 0
134 -129 58 0
-134 -129 -58 0
129 -135 0
134 -135 0
-129 -134 135 0
87 -136 0
8 -136 0
-87 -8 136 0
-135 133 0
-136 133 0
135 136 -133 0
9 88 -138 0
-9 88 138 0
9 -88 138 0
-9 -88 -138 0
138 133 -59 0
-138 133 59 0
138 -133 59 0
-138 -133 -59 0
133 -139 0
138 -139 0
-133 -138 139 0
88 -140 0
9 -140 0
-88 -9 140 0
-139 137 0
-140 137 0
139 140 -137 0
10 89 -142 0
-10 89 142 0
10 -89 142 0
-10 -89 -142 0
142 137 -60 0
-142 137 60 0
142 -137 60 0
-142 -137 -60 0
137 -143 0
142 -143 0
-137 -142 143 0
89 -144 0
10 -144 0
-89 -10 144 0
-143 141 0
-144 141 0
143 144 -141 0
11 90 -146 0
-11 90 146 0
11 -90 146 0
-11 -90 -146 0
146 141 -61 0
-146 141 61 0
146 -141 61 0
-146 -141 -61 0
141 -147 0
146 -147 0
-141 -146 147 0
90 -148 0
11 -148 0
-90 -11 148 0
-147 145 0
-148 145 0
147 148 -145 0
12 91 -150 0
-12 91 150 0
12 -91 150 0
-12 -91 -150 0
150 145 -62 0
-150 145 62 0
150 -145 62 0
-150 -145 -62 0
145 -151 0
150 -151 0
-145 -150 151 0
91 -152 0
12 -152 0
-91 -12 152 0
-151 149 0
-152 149 0
151 152 -149 0
13 92 -154 0
-13 92 154 0
13 -92 154 0
-13 -92 -154 0
154 149 -63 0
-154 149 63 0
154 -149 63 0
-154 -149 -63 0
149 -155 0
154 -155 0
-149 -154 155 0
92 -156 0
13 -156 0
-92 -13 156 0
-155 153 0
-156 153 0
155 156 -153 0
14 93 -158 0
-14 93 158 0
14 -93 158 0
-14 -93 -158 0
158 153 -64 0
-158 153 64 0
158 -153 64 0
-158 -153 -64 0
153 -159 0
158 -159 0
-153 -158 159 0
93 -160 0
14 -160 0
-93 -14 160 0
-159 157 0
-160 157 0
159 160 -157 0
15 94 -162 0
-15 94 162 0
15 -94 162 0
-15 -94 -162 0
162 157 -65 0
-162 157 65 0
162 -157 65 0
-162 -157 -65 0
157 -163 0
162 -163 0
-157 -162 163 0
94 -164 0
15 -164 0
-94 -15 164 0
-163 161 0
-164 161 0
163 164 -161 0
16 95 -166 0
-16 95 166 0
16 -95 166 0
-16 -95 -166 0
166 161 -66 0
-166 161 66 0
166 -161 66 0
-166 -161 -66 0
161 -167 0
166 -167 0
-161 -166 167 0
95 -168 0
16 -168 0
-95 -16 168 0
-167 165 0
-168 165 0
167 168 -165 0
17 96 -170 0
-17 96 170 0
17 -96 170 0
-17 -96 -170 0
170 165 -67 0
-170 165 67 0
170 -165 67 0
-170 -165 -67 0
165 -171 0
170 -171 0
-165 -170 171 0
96 -172 0
17 -172 0
-96 -17 172 0
-171 169 0
-172 169 0
171 172 -169 0
18 97 -174 0
-18 97 174 0
18 -97 174 0
-18 -97 -174 0
174 169 -68 0
-174 169 68 0
174 -169 68 0
-174 -169 -68 0
169 -175 0
174 -175 0
-169 -174 175 0
97 -176 0
18 -176 0
-97 -18 176 0
-175 173 0
-176 173 0
175 176 -173 0
19 98 -178 0
-19 98 178 0
19 -98 178 0
-19 -98 -178 0
178 173 -69 0
-178 173 69 0
178 -173 69 0
-178 -173 -69 0
173 -179 0
178 -179 0
-173 -178 179 0
98 -180 0
19 -180 0
-98 -19 180 0
-179 177 0
-180 177 0
179 180 -177 0
20 99 -182 0
-20 99 182 0
20 -99 182 0
-20 -99 -182 0
182 177 -70 0
-182 177 70 0
182 -177 70 0
-182 -177 -70 0
177 -183 0
182 -183 0
-177 -182 183 0
99 -184 0
20 -184 0
-99 -20 184 0
-183 181 0
-184 181 0
183 184 -181 0
21 100 -186 0
-21 100 186 0
21 -100 186 0
-21 -100 -186 0
186 181 -71 0
-186 181 71 0
186 -181 71 0
-186 -181 -71 0
181 -187 0
186 -187 0
-181 -186 187 0
100 -188 0
21 -188 0
-100 -21 188 0
-187 185 0
-188 185 0
187 188 -185 0
22 101 -190 0
-22 101 190 0
22 -101 190 0
-22 -101 -190 0
190 185 -72 0
-190 185 72 0
190 -185 72 0
-190 -185 -72 0
185 -191 0
190 -191 0
-185 -190 191 0
101 -192 0
22 -192 0
-101 -22 192 0
-191 189 0
-192 189 0
191 192 -189 0
23 102 -194 0
-23 102 194 0
23 -102 194 0
-23 -102 -194 0
194 189 -73 0
-194 189 73 0
194 -189 73 0
-194 -189 -73 0
189 -195 0
194 -195 0
-189 -194 195 0
102 -196 0
23 -196 0
-102 -23 196 0
-195 193 0
-196 193 0
195 196 -193 0
24 103 -198 0
-24 103 198 0
24 -103 198 0
-24 -103 -198 0
198 193 -74 0
-198 193 74 0
198 -193 74 0
-198 -193 -74 0
193 -199 0
198 -199 0
-193 -198 199 0
103 -200 0
24 -200 0
-103 -24 200 0
-199 197 0
-200 197 0
199 200 -197 0
25 104 -202 0
-25 104 202 0
25 -104 202 0
-25 -104 -202 0
202 197 -75 0
-202 197 75 0
202 -197 75 0
-202 -197 -75 0
197 -203 0
202 -203 0
-197 -202 203 0
104 -204 0
25 -204 0
-104 -25 204 0
-203 201 0
-204 201 0
203 204 -201 0
201 77 -76 0
-201 77 76 0
201 -77 76 0
-201 -77 -76 0
